200
1000
266
264
260
260
259
258
257
255
251
251
246
244
244
244
243
242
242
240
238
238
237
236
235
232
232
231
231
229
228
228
227
227
227
227
223
222
220
218
217
214
212
212
211
210
210
209
207
207
203
202
202
201
200
196
196
194
194
192
191
189
188
188
187
181
179
179
178
178
177
176
175
174
173
173
172
171
170
169
168
168
168
167
167
159
159
158
157
157
156
156
156
152
152
151
151
150
148
148
147
146
146
144
143
142
142
141
141
139
139
137
135
134
134
133
133
128
127
126
123
123
123
119
119
118
117
117
115
113
113
112
111
110
110
108
108
107
106
106
103
102
100
99
98
97
97
97
96
91
90
88
88
88
88
82
81
81
78
76
75
75
75
74
74
73
72
70
69
68
68
65
64
62
62
60
57
55
54
53
52
52
51
45
43
41
41
38
38
37
33
33
30
30
28
28
27
27
26
25
18
17
